120
150
59
43
48
48
49
57
48
59
46
53
58
47
49
54
47
54
50
50
47
53
46
45
45
45
59
50
44
53
53
49
60
41
60
45
45
55
55
41
40
59
47
56
47
47
49
48
53
59
60
46
55
46
52
54
57
49
44
60
60
58
48
44
52
57
59
50
44
44
41
41
54
49
52
53
47
45
50
54
46
57
47
48
49
53
46
43
60
59
42
49
53
52
47
55
47
56
53
48
45
41
57
47
46
57
52
41
50
54
46
43
57
58
40
52
60
60
57
50
50
43
